Route #1: 1 6 37 41 17 18 11 3 39 35 44 1
Route #2: 1 19 40 30 14 1
Route #3: 1 43 15 5 12 27 29 1
Route #4: 1 7 8 49 34 20 4 36 1
Route #5: 1 24 16 51 48 46 26 47 23 25 1
Route #6: 1 32 28 42 33 38 13 9 1
Route #7: 1 22 45 21 2 50 10 31 1
cost 1073.7956015583002
